max: 310 x1_1 + 380 x1_2 + 350 x1_3 + 285 x1_4 + 310 x2_1 + 380 x2_2 + 350 x2_3 + 285 x2_4 + 310 x3_1 + 380 x3_2 + 350 x3_3 + 285 x3_4;
26.67 x1_1 + 43.33 x1_2 + 25.22 x1_3 + 32.50 x1_4 <= 6800;
26.67 x2_1 + 43.33 x2_2 + 25.22 x2_3 + 32.50 x2_4 <= 8700;
26.67 x3_1 + 43.33 x3_2 + 25.22 x3_3 + 32.50 x3_4 <= 5300;
x1_1 + x1_2 + x1_3 + x1_4 - 10 r = 0;
x2_1 + x2_2 + x2_3 + x2_4 - 16 r = 0;
x3_1 + x3_2 + x3_3 + x3_4 - 8 r = 0;
x1_1 + x2_1 + x3_1 <= 18;
x1_2 + x2_2 + x3_2 <= 15;
x1_3 + x2_3 + x3_3 <= 23;
x1_4 + x2_4 + x3_4 <= 12;
r <= 1;
r >= 0;
x1_1 >= 0;
x1_2 >= 0;
x1_3 >= 0;
x1_4 >= 0;
x2_1 >= 0;
x2_2 >= 0;
x2_3 >= 0;
x2_4 >= 0;
x3_1 >= 0;
x3_2 >= 0;
x3_3 >= 0;
x3_4 >= 0;
